
Gurobi 9.5.2 (mac64[arm]) logging started Fri Apr 28 13:28:59 2023

Set parameter LogFile to value "Java/output/pure_mip_2_machine/scenario_seed_2_nJob_30_machineCount_2/mip_increment_2/log.txt"
Gurobi Optimizer version 9.5.2 build v9.5.2rc0 (mac64[arm])
Thread count: 8 physical cores, 8 logical processors, using up to 8 threads
Optimize a model with 850 rows, 10672 columns and 74346 nonzeros
Model fingerprint: 0xb8707fb7
Variable types: 0 continuous, 10672 integer (10672 binary)
Coefficient statistics:
  Matrix range     [1e+00, 1e+02]
  Objective range  [2e+00, 2e+06]
  Bounds range     [1e+00, 1e+00]
  RHS range        [1e+00, 1e+00]
Presolve removed 45 rows and 1934 columns
Presolve time: 0.07s
Presolved: 805 rows, 8738 columns, 59994 nonzeros
Variable types: 0 continuous, 8738 integer (8724 binary)

Root relaxation: objective 2.138001e+05, 6854 iterations, 0.26 seconds (0.48 work units)

    Nodes    |    Current Node    |     Objective Bounds      |     Work
 Expl Unexpl |  Obj  Depth IntInf | Incumbent    BestBd   Gap | It/Node Time

     0     0 213800.145    0  251          - 213800.145      -     -    0s
     0     0 214621.458    0  314          - 214621.458      -     -    0s
     0     0 215088.930    0  326          - 215088.930      -     -    0s
     0     0 215089.125    0  306          - 215089.125      -     -    0s
     0     0 216710.187    0  391          - 216710.187      -     -    1s
     0     0 217926.836    0  399          - 217926.836      -     -    1s
     0     0 217942.464    0  404          - 217942.464      -     -    1s
     0     0 217943.819    0  406          - 217943.819      -     -    1s
     0     0 217943.886    0  399          - 217943.886      -     -    1s
     0     0 219469.142    0  425          - 219469.142      -     -    1s
     0     0 219522.201    0  433          - 219522.201      -     -    1s
     0     0 219721.597    0  432          - 219721.597      -     -    2s
     0     0 219725.348    0  439          - 219725.348      -     -    2s
     0     0 219725.348    0  442          - 219725.348      -     -    2s
     0     0 221190.648    0  427          - 221190.648      -     -    2s
     0     0 221807.693    0  427          - 221807.693      -     -    2s
     0     0 221830.802    0  435          - 221830.802      -     -    2s
     0     0 221831.927    0  431          - 221831.927      -     -    2s
     0     0 222493.165    0  428          - 222493.165      -     -    2s
     0     0 222913.090    0  428          - 222913.090      -     -    3s
     0     0 223145.851    0  441          - 223145.851      -     -    3s
     0     0 223265.699    0  433          - 223265.699      -     -    3s
     0     0 223267.222    0  423          - 223267.222      -     -    3s
     0     0 225963.511    0  427          - 225963.511      -     -    3s
     0     0 227123.792    0  443          - 227123.792      -     -    3s
     0     0 227193.258    0  444          - 227193.258      -     -    4s
     0     0 227231.763    0  440          - 227231.763      -     -    4s
     0     0 227231.763    0  443          - 227231.763      -     -    4s
H    0     0                    2580972.0000 230489.545  91.1%     -    4s
H    0     0                    1519978.0000 230489.545  84.8%     -    4s
     0     0 230489.545    0  420 1519978.00 230489.545  84.8%     -    4s
H    0     0                    1478644.0000 230489.545  84.4%     -    4s
H    0     0                    1411414.0000 230489.545  83.7%     -    4s
     0     0 231577.372    0  459 1411414.00 231577.372  83.6%     -    4s
     0     0 231601.247    0  462 1411414.00 231601.247  83.6%     -    4s
     0     0 231612.660    0  476 1411414.00 231612.660  83.6%     -    5s
     0     0 231612.691    0  480 1411414.00 231612.691  83.6%     -    5s
     0     0 234466.302    0  432 1411414.00 234466.302  83.4%     -    5s
H    0     0                    1407970.0000 234466.302  83.3%     -    5s
H    0     0                    1392324.0000 234466.302  83.2%     -    5s
H    0     0                    1379269.0000 234466.302  83.0%     -    5s
H    0     0                    650864.00000 234710.975  63.9%     -    5s
H    0     0                    635586.00000 234710.975  63.1%     -    5s
     0     0 234710.975    0  436 635586.000 234710.975  63.1%     -    5s
     0     0 234716.372    0  447 635586.000 234716.372  63.1%     -    5s
H    0     0                    603687.00000 237559.230  60.6%     -    5s
     0     0 237559.230    0  456 603687.000 237559.230  60.6%     -    5s
H    0     0                    598529.00000 237559.230  60.3%     -    5s
     0     0 238159.145    0  477 598529.000 238159.145  60.2%     -    6s
     0     0 238171.262    0  479 598529.000 238171.262  60.2%     -    6s
H    0     0                    580559.00000 238620.816  58.9%     -    6s
     0     0 238620.816    0  488 580559.000 238620.816  58.9%     -    6s
H    0     0                    431609.00000 238620.816  44.7%     -    6s
     0     0 239073.643    0  508 431609.000 239073.643  44.6%     -    6s
     0     0 239233.532    0  487 431609.000 239233.532  44.6%     -    6s
     0     0 239251.396    0  482 431609.000 239251.396  44.6%     -    6s
     0     0 241795.041    0  513 431609.000 241795.041  44.0%     -    7s
H    0     0                    422071.00000 241795.041  42.7%     -    7s
     0     0 245715.017    0  493 422071.000 245715.017  41.8%     -    7s
H    0     0                    314444.00000 245900.153  21.8%     -    8s
     0     0 245903.665    0  467 314444.000 245903.665  21.8%     -    8s
     0     0 245914.251    0  471 314444.000 245914.251  21.8%     -    8s
     0     0 247076.964    0  490 314444.000 247076.964  21.4%     -    8s
H    0     0                    281370.00000 247076.964  12.2%     -    8s
     0     0 247408.446    0  513 281370.000 247408.446  12.1%     -    8s
     0     0 247476.867    0  520 281370.000 247476.867  12.0%     -    8s
     0     0 247483.455    0  528 281370.000 247483.455  12.0%     -    8s
     0     0 252215.865    0  515 281370.000 252215.865  10.4%     -    8s
     0     0 252674.523    0  511 281370.000 252674.523  10.2%     -    9s
     0     0 252719.210    0  523 281370.000 252719.210  10.2%     -    9s
     0     0 252730.142    0  522 281370.000 252730.142  10.2%     -    9s
     0     0 255487.006    0  502 281370.000 255487.006  9.20%     -    9s
H    0     0                    281328.00000 255487.006  9.19%     -    9s
     0     0 257545.228    0  519 281328.000 257545.228  8.45%     -    9s
     0     0 258478.506    0  539 281328.000 258478.506  8.12%     -    9s
     0     0 258587.460    0  531 281328.000 258587.460  8.08%     -   10s
     0     0 258626.876    0  519 281328.000 258626.876  8.07%     -   10s
     0     0 258627.862    0  510 281328.000 258627.862  8.07%     -   10s
     0     0 260356.122    0  481 281328.000 260356.122  7.45%     -   10s
     0     0 260356.122    0  238 281328.000 260356.122  7.45%     -   10s
     0     0 260356.122    0  367 281328.000 260356.122  7.45%     -   11s
     0     0 260356.122    0  445 281328.000 260356.122  7.45%     -   11s
     0     0 260356.122    0  443 281328.000 260356.122  7.45%     -   11s
     0     0 260438.341    0  290 281328.000 260438.341  7.43%     -   11s
     0     0 260439.864    0  288 281328.000 260439.864  7.42%     -   11s
H    0     0                    281326.00000 260439.864  7.42%     -   11s
     0     0 261087.623    0  472 281326.000 261087.623  7.19%     -   11s
     0     0 261166.159    0  476 281326.000 261166.159  7.17%     -   11s
     0     0 261166.415    0  475 281326.000 261166.415  7.17%     -   11s
     0     0 261665.070    0  466 281326.000 261665.070  6.99%     -   12s
     0     0 261670.250    0  478 281326.000 261670.250  6.99%     -   12s
     0     0 262153.651    0  462 281326.000 262153.651  6.81%     -   12s
     0     0 262253.584    0  460 281326.000 262253.584  6.78%     -   12s
     0     0 262256.945    0  452 281326.000 262256.945  6.78%     -   12s
     0     0 262376.539    0  478 281326.000 262376.539  6.74%     -   12s
     0     0 262376.539    0  462 281326.000 262376.539  6.74%     -   12s
     0     2 262433.516    0  457 281326.000 262433.516  6.72%     -   12s
H   31    36                    281324.00000 263125.097  6.47%  1137   14s
H   34    36                    279418.00000 263132.297  5.83%  1096   14s
H  101   103                    279404.00000 263132.297  5.82%   750   14s
H  102   103                    279402.00000 263132.297  5.82%   755   14s
H  106   103                    279398.00000 263132.297  5.82%   748   14s
   112   116 264427.616   10  400 279398.000 263132.297  5.82%   724   15s
H  152   139                    279396.00000 263132.297  5.82%   601   15s
H  157   139                    278022.00000 263132.297  5.36%   628   15s
H  202   173                    277948.00000 263132.297  5.33%   585   16s
H  204   173                    265040.00000 263132.297  0.72%   582   16s
H  294   136                    265016.00000 263132.297  0.71%   435   16s

Cutting planes:
  Gomory: 3
  Cover: 16
  Clique: 55
  MIR: 123
  StrongCG: 31
  GUB cover: 135
  Zero half: 16
  RLT: 1

Explored 357 nodes (241631 simplex iterations) in 16.48 seconds (33.47 work units)
Thread count was 8 (of 8 available processors)

Solution count 10: 265016 265040 277948 ... 281324

Optimal solution found (tolerance 1.00e-04)
Best objective 2.650160000000e+05, best bound 2.650160000000e+05, gap 0.0000%
